NAME : minsuperperm4
TYPE : TSP
DIMENSION : 48
EDGE_WEIGHT_TYPE : EXPLICIT
EDGE_WEIGHT_FORMAT : UPPER_ROW
NODE_COORD_TYPE : NO_COORDS
DISPLAY_DATA_TYPE : NO_DISPLAY
EDGE_WEIGHT_SECTION :
408 408 408 408 408 408 408 408 408 408 408 408 408 408 408 408 408 408 408 408 408 408 408 0 17 17 17 17 17 17 17 17 14 17 17 17 17 17 17 15 15 16 16 16 16 16 16
408 408 408 408 408 408 408 408 408 408 408 408 408 408 408 408 408 408 408 408 408 408 13 0 17 17 17 17 17 17 17 17 17 14 16 16 16 16 16 16 17 17 17 17 15 15
408 408 408 408 408 408 408 408 408 408 408 408 408 408 408 408 408 408 408 408 408 13 17 0 17 17 17 17 17 17 17 15 15 17 17 17 14 17 17 16 16 16 16 16 16
408 408 408 408 408 408 408 408 408 408 408 408 408 408 408 408 408 408 408 408 13 17 17 0 17 17 16 16 16 16 16 16 17 17 17 17 17 14 17 17 15 15 17 17
408 408 408 408 408 408 408 408 408 408 408 408 408 408 408 408 408 408 408 13 17 17 17 0 17 17 17 15 15 17 17 16 16 16 16 16 16 17 17 17 14 17 17
408 408 408 408 408 408 408 408 408 408 408 408 408 408 408 408 408 408 13 17 17 17 17 0 16 16 16 16 16 16 17 17 15 15 17 17 17 17 17 17 17 14
408 408 408 408 408 408 408 408 408 408 408 408 408 408 408 408 408 13 17 17 14 17 17 0 17 17 17 17 17 17 17 17 17 15 15 16 16 16 16 16 16
408 408 408 408 408 408 408 408 408 408 408 408 408 408 408 408 13 17 17 17 17 14 17 0 17 17 17 17 16 16 16 16 16 16 17 17 17 17 15 15
408 408 408 408 408 408 408 408 408 408 408 408 408 408 408 13 17 17 17 15 15 17 17 0 17 17 17 17 14 17 17 17 17 16 16 16 16 16 16
408 408 408 408 408 408 408 408 408 408 408 408 408 408 13 16 16 16 16 16 17 17 17 0 17 17 17 17 17 17 14 17 15 15 17 17 17 17
408 408 408 408 408 408 408 408 408 408 408 408 408 13 17 15 15 17 17 17 17 17 17 0 17 16 16 16 16 16 16 17 14 17 17 17 17
408 408 408 408 408 408 408 408 408 408 408 408 13 16 16 16 16 16 17 17 17 17 17 0 15 15 17 17 17 17 17 17 17 17 14 17
408 408 408 408 408 408 408 408 408 408 408 13 14 17 17 17 17 17 17 17 17 15 15 0 17 17 17 17 17 16 16 16 16 16 16
408 408 408 408 408 408 408 408 408 408 13 17 17 17 14 17 16 16 16 16 16 16 17 0 17 17 17 17 17 17 15 15 17 17
408 408 408 408 408 408 408 408 408 13 17 17 17 15 15 17 14 17 17 17 17 17 17 0 17 17 17 16 16 16 16 16 16
408 408 408 408 408 408 408 408 13 16 16 16 16 16 17 17 17 17 14 17 17 17 17 0 17 17 15 15 17 17 17 17
408 408 408 408 408 408 408 13 15 17 17 17 17 16 16 16 16 16 16 17 17 17 17 0 17 14 17 17 17 17 17
408 408 408 408 408 408 13 16 16 16 16 16 15 15 17 17 17 17 17 17 17 17 17 0 17 17 14 17 17 17
408 408 408 408 408 13 17 17 17 17 17 17 17 15 15 17 17 16 16 16 16 16 16 0 17 17 17 17 17
408 408 408 408 13 17 14 17 17 17 16 16 16 16 16 16 17 17 15 15 17 17 17 0 17 17 17 17
408 408 408 13 17 15 15 17 17 14 17 17 17 17 17 16 16 16 16 16 16 17 17 0 17 17 17
408 408 13 16 16 16 16 16 17 17 14 17 17 17 15 15 17 17 17 17 17 17 17 0 17 17
408 13 15 17 17 17 17 16 16 16 16 16 16 14 17 17 17 17 17 17 17 17 17 0 17
13 16 16 16 16 16 15 15 17 17 17 17 17 17 14 17 17 17 17 17 17 17 17 0
408 408 408 408 408 408 408 408 408 408 408 408 408 408 408 408 408 408 408 408 408 408 408
408 408 408 408 408 408 408 408 408 408 408 408 408 408 408 408 408 408 408 408 408 408
408 408 408 408 408 408 408 408 408 408 408 408 408 408 408 408 408 408 408 408 408
408 408 408 408 408 408 408 408 408 408 408 408 408 408 408 408 408 408 408 408
408 408 408 408 408 408 408 408 408 408 408 408 408 408 408 408 408 408 408
408 408 408 408 408 408 408 408 408 408 408 408 408 408 408 408 408 408
408 408 408 408 408 408 408 408 408 408 408 408 408 408 408 408 408
408 408 408 408 408 408 408 408 408 408 408 408 408 408 408 408
408 408 408 408 408 408 408 408 408 408 408 408 408 408 408
408 408 408 408 408 408 408 408 408 408 408 408 408 408
408 408 408 408 408 408 408 408 408 408 408 408 408
408 408 408 408 408 408 408 408 408 408 408 408
408 408 408 408 408 408 408 408 408 408 408
408 408 408 408 408 408 408 408 408 408
408 408 408 408 408 408 408 408 408
408 408 408 408 408 408 408 408
408 408 408 408 408 408 408
408 408 408 408 408 408
408 408 408 408 408
408 408 408 408
408 408 408
408 408
408
